% Auto-generated by scripts/generate_dzn.py
% problem_type   = regex
% instance       = regex_10
% source_json    = instances_json/2_high_blowup/regex_10.json
% blowup         = 19.0
% representation = DFA

mode = 0;

var_count = 38;
Q = 494;
S = 2;
q0 = 1;
F = {306, 307, 308, 309, 310, 311, 312, 313, 314, 315, 316, 317, 318, 319, 320, 321, 322, 323, 324, 325, 326, 327, 328, 329, 330, 331, 332, 333, 334, 335, 336, 337, 338, 339, 340, 341, 342, 343, 344, 345, 346, 347, 348, 349, 350, 351, 352, 353, 354, 355, 356, 357, 358, 359, 360, 361, 362, 363, 364, 365, 366, 367, 368, 369, 370, 371, 372, 373, 374, 375, 376, 377, 378, 379, 380, 381, 382, 383, 384, 385, 386, 387, 388, 389, 390, 391, 392, 393, 394, 395, 396, 397, 398, 399, 400, 401, 402, 403, 404, 405, 406, 407, 408, 409, 410, 411, 412, 413, 414, 415, 416, 417, 418, 419, 420, 421, 422, 423, 424, 425, 426, 427, 428, 429, 430, 431, 432, 433, 434, 435, 436, 437, 438, 439, 440, 441, 442, 443, 444, 445, 446, 447, 448, 449, 450, 451, 452, 453, 454, 455, 456, 457, 458, 459, 460, 461, 462, 463, 464, 465, 466, 467, 468, 469, 470, 471, 472, 473, 474, 475, 476, 477, 478, 479, 480, 481, 482, 483, 484, 485, 486, 487, 488, 489, 490, 491, 492, 493, 494};
d_dfa = array2d(1..494, 1..2, [
  2, 1,
  3, 1,
  4, 1,
  6, 5,
  8, 7,
  10, 9,
  12, 11,
  13, 11,
  15, 14,
  17, 16,
  19, 18,
  20, 18,
  21, 18,
  23, 22,
  24, 22,
  26, 25,
  28, 27,
  30, 29,
  31, 29,
  32, 29,
  34, 33,
  36, 35,
  37, 35,
  38, 35,
  40, 39,
  41, 39,
  43, 42,
  45, 44,
  47, 46,
  48, 46,
  49, 46,
  51, 50,
  53, 52,
  55, 54,
  57, 56,
  58, 56,
  59, 56,
  61, 60,
  63, 62,
  64, 62,
  65, 62,
  67, 66,
  68, 66,
  70, 69,
  72, 71,
  74, 73,
  75, 73,
  76, 73,
  78, 77,
  80, 79,
  82, 81,
  84, 83,
  85, 83,
  87, 86,
  89, 88,
  91, 90,
  92, 90,
  93, 90,
  95, 94,
  97, 96,
  99, 98,
  101, 100,
  102, 100,
  103, 100,
  105, 104,
  107, 106,
  108, 106,
  109, 106,
  111, 110,
  112, 110,
  114, 113,
  116, 115,
  118, 117,
  119, 117,
  120, 117,
  122, 121,
  124, 123,
  126, 125,
  128, 127,
  129, 127,
  131, 130,
  133, 132,
  135, 134,
  136, 134,
  137, 134,
  139, 138,
  140, 138,
  142, 141,
  144, 143,
  146, 145,
  147, 145,
  148, 145,
  150, 149,
  152, 151,
  154, 153,
  156, 155,
  157, 155,
  159, 158,
  161, 160,
  163, 162,
  164, 162,
  165, 162,
  167, 166,
  169, 168,
  171, 170,
  173, 172,
  174, 172,
  175, 172,
  177, 176,
  179, 178,
  180, 178,
  181, 178,
  183, 182,
  184, 182,
  186, 185,
  188, 187,
  190, 189,
  191, 189,
  192, 189,
  194, 193,
  196, 195,
  198, 197,
  200, 199,
  201, 199,
  203, 202,
  205, 204,
  207, 206,
  208, 206,
  209, 206,
  211, 210,
  212, 210,
  214, 213,
  216, 215,
  218, 217,
  219, 217,
  220, 217,
  222, 221,
  224, 223,
  225, 223,
  226, 223,
  228, 227,
  229, 227,
  231, 230,
  233, 232,
  235, 234,
  236, 234,
  237, 234,
  239, 238,
  241, 240,
  243, 242,
  245, 244,
  246, 244,
  248, 247,
  250, 249,
  252, 251,
  253, 251,
  254, 251,
  256, 255,
  257, 255,
  259, 258,
  261, 260,
  263, 262,
  264, 262,
  265, 262,
  267, 266,
  269, 268,
  271, 270,
  273, 272,
  274, 272,
  276, 275,
  278, 277,
  280, 279,
  281, 279,
  282, 279,
  284, 283,
  286, 285,
  288, 287,
  290, 289,
  291, 289,
  292, 289,
  294, 293,
  296, 295,
  297, 295,
  298, 295,
  300, 299,
  301, 299,
  303, 302,
  305, 304,
  307, 306,
  308, 306,
  309, 306,
  311, 310,
  313, 312,
  315, 314,
  317, 316,
  318, 316,
  320, 319,
  322, 321,
  324, 323,
  325, 323,
  326, 323,
  328, 327,
  329, 327,
  331, 330,
  333, 332,
  335, 334,
  336, 334,
  337, 334,
  339, 338,
  341, 340,
  342, 340,
  343, 340,
  345, 344,
  346, 344,
  348, 347,
  350, 349,
  352, 351,
  353, 351,
  354, 351,
  356, 355,
  358, 357,
  360, 359,
  362, 361,
  363, 361,
  364, 361,
  366, 365,
  368, 367,
  369, 367,
  370, 367,
  372, 371,
  373, 371,
  375, 374,
  377, 376,
  379, 378,
  380, 378,
  381, 378,
  383, 382,
  385, 384,
  387, 386,
  389, 388,
  390, 388,
  392, 391,
  394, 393,
  396, 395,
  397, 395,
  398, 395,
  400, 399,
  401, 399,
  403, 402,
  405, 404,
  407, 406,
  408, 406,
  409, 406,
  411, 410,
  413, 412,
  414, 412,
  415, 412,
  417, 416,
  418, 416,
  420, 419,
  422, 421,
  424, 423,
  425, 423,
  426, 423,
  428, 427,
  430, 429,
  432, 431,
  434, 433,
  435, 433,
  437, 436,
  439, 438,
  441, 440,
  442, 440,
  443, 440,
  445, 444,
  446, 444,
  448, 447,
  450, 449,
  452, 451,
  453, 451,
  454, 451,
  456, 455,
  458, 457,
  460, 459,
  462, 461,
  463, 461,
  465, 464,
  467, 466,
  469, 468,
  470, 468,
  471, 468,
  473, 472,
  475, 474,
  477, 476,
  479, 478,
  480, 478,
  481, 478,
  483, 482,
  485, 484,
  486, 484,
  487, 484,
  489, 488,
  490, 488,
  492, 491,
  494, 493,
  2, 1,
  3, 1,
  4, 1,
  6, 5,
  8, 7,
  10, 9,
  12, 11,
  13, 11,
  15, 14,
  17, 16,
  19, 18,
  20, 18,
  21, 18,
  23, 22,
  24, 22,
  26, 25,
  28, 27,
  30, 29,
  31, 29,
  32, 29,
  34, 33,
  36, 35,
  37, 35,
  38, 35,
  40, 39,
  41, 39,
  43, 42,
  45, 44,
  47, 46,
  48, 46,
  49, 46,
  51, 50,
  53, 52,
  55, 54,
  57, 56,
  58, 56,
  59, 56,
  61, 60,
  63, 62,
  64, 62,
  65, 62,
  67, 66,
  68, 66,
  70, 69,
  72, 71,
  74, 73,
  75, 73,
  76, 73,
  78, 77,
  80, 79,
  82, 81,
  84, 83,
  85, 83,
  87, 86,
  89, 88,
  91, 90,
  92, 90,
  93, 90,
  95, 94,
  97, 96,
  99, 98,
  101, 100,
  102, 100,
  103, 100,
  105, 104,
  107, 106,
  108, 106,
  109, 106,
  111, 110,
  112, 110,
  114, 113,
  116, 115,
  307, 306,
  308, 306,
  309, 306,
  311, 310,
  313, 312,
  315, 314,
  317, 316,
  318, 316,
  320, 319,
  322, 321,
  324, 323,
  325, 323,
  326, 323,
  328, 327,
  329, 327,
  331, 330,
  333, 332,
  335, 334,
  336, 334,
  337, 334,
  339, 338,
  341, 340,
  342, 340,
  343, 340,
  345, 344,
  346, 344,
  348, 347,
  350, 349,
  352, 351,
  353, 351,
  354, 351,
  356, 355,
  358, 357,
  360, 359,
  362, 361,
  363, 361,
  364, 361,
  366, 365,
  368, 367,
  369, 367,
  370, 367,
  372, 371,
  373, 371,
  375, 374,
  377, 376,
  379, 378,
  380, 378,
  381, 378,
  383, 382,
  385, 384,
  387, 386,
  389, 388,
  390, 388,
  392, 391,
  394, 393,
  396, 395,
  397, 395,
  398, 395,
  400, 399,
  401, 399,
  403, 402,
  405, 404,
  407, 406,
  408, 406,
  409, 406,
  411, 410,
  413, 412,
  414, 412,
  415, 412,
  417, 416,
  418, 416,
  420, 419,
  422, 421,
  424, 423,
  425, 423,
  426, 423,
  428, 427,
  430, 429,
  432, 431,
  434, 433,
  435, 433,
  437, 436,
  439, 438,
  441, 440,
  442, 440,
  443, 440,
  445, 444,
  446, 444,
  448, 447,
  450, 449,
  452, 451,
  453, 451,
  454, 451,
  456, 455,
  458, 457,
  460, 459,
  462, 461,
  463, 461,
  465, 464,
  467, 466,
  469, 468,
  470, 468,
  471, 468,
  473, 472,
  475, 474,
  477, 476,
  479, 478,
  480, 478,
  481, 478,
  483, 482,
  485, 484,
  486, 484,
  487, 484,
  489, 488,
  490, 488,
  492, 491,
  494, 493
]);
d_nfa = array2d(1..494, 1..2, [
  {}, {},
  {}, {},
  {}, {},
  {}, {},
  {}, {},
  {}, {},
  {}, {},
  {}, {},
  {}, {},
  {}, {},
  {}, {},
  {}, {},
  {}, {},
  {}, {},
  {}, {},
  {}, {},
  {}, {},
  {}, {},
  {}, {},
  {}, {},
  {}, {},
  {}, {},
  {}, {},
  {}, {},
  {}, {},
  {}, {},
  {}, {},
  {}, {},
  {}, {},
  {}, {},
  {}, {},
  {}, {},
  {}, {},
  {}, {},
  {}, {},
  {}, {},
  {}, {},
  {}, {},
  {}, {},
  {}, {},
  {}, {},
  {}, {},
  {}, {},
  {}, {},
  {}, {},
  {}, {},
  {}, {},
  {}, {},
  {}, {},
  {}, {},
  {}, {},
  {}, {},
  {}, {},
  {}, {},
  {}, {},
  {}, {},
  {}, {},
  {}, {},
  {}, {},
  {}, {},
  {}, {},
  {}, {},
  {}, {},
  {}, {},
  {}, {},
  {}, {},
  {}, {},
  {}, {},
  {}, {},
  {}, {},
  {}, {},
  {}, {},
  {}, {},
  {}, {},
  {}, {},
  {}, {},
  {}, {},
  {}, {},
  {}, {},
  {}, {},
  {}, {},
  {}, {},
  {}, {},
  {}, {},
  {}, {},
  {}, {},
  {}, {},
  {}, {},
  {}, {},
  {}, {},
  {}, {},
  {}, {},
  {}, {},
  {}, {},
  {}, {},
  {}, {},
  {}, {},
  {}, {},
  {}, {},
  {}, {},
  {}, {},
  {}, {},
  {}, {},
  {}, {},
  {}, {},
  {}, {},
  {}, {},
  {}, {},
  {}, {},
  {}, {},
  {}, {},
  {}, {},
  {}, {},
  {}, {},
  {}, {},
  {}, {},
  {}, {},
  {}, {},
  {}, {},
  {}, {},
  {}, {},
  {}, {},
  {}, {},
  {}, {},
  {}, {},
  {}, {},
  {}, {},
  {}, {},
  {}, {},
  {}, {},
  {}, {},
  {}, {},
  {}, {},
  {}, {},
  {}, {},
  {}, {},
  {}, {},
  {}, {},
  {}, {},
  {}, {},
  {}, {},
  {}, {},
  {}, {},
  {}, {},
  {}, {},
  {}, {},
  {}, {},
  {}, {},
  {}, {},
  {}, {},
  {}, {},
  {}, {},
  {}, {},
  {}, {},
  {}, {},
  {}, {},
  {}, {},
  {}, {},
  {}, {},
  {}, {},
  {}, {},
  {}, {},
  {}, {},
  {}, {},
  {}, {},
  {}, {},
  {}, {},
  {}, {},
  {}, {},
  {}, {},
  {}, {},
  {}, {},
  {}, {},
  {}, {},
  {}, {},
  {}, {},
  {}, {},
  {}, {},
  {}, {},
  {}, {},
  {}, {},
  {}, {},
  {}, {},
  {}, {},
  {}, {},
  {}, {},
  {}, {},
  {}, {},
  {}, {},
  {}, {},
  {}, {},
  {}, {},
  {}, {},
  {}, {},
  {}, {},
  {}, {},
  {}, {},
  {}, {},
  {}, {},
  {}, {},
  {}, {},
  {}, {},
  {}, {},
  {}, {},
  {}, {},
  {}, {},
  {}, {},
  {}, {},
  {}, {},
  {}, {},
  {}, {},
  {}, {},
  {}, {},
  {}, {},
  {}, {},
  {}, {},
  {}, {},
  {}, {},
  {}, {},
  {}, {},
  {}, {},
  {}, {},
  {}, {},
  {}, {},
  {}, {},
  {}, {},
  {}, {},
  {}, {},
  {}, {},
  {}, {},
  {}, {},
  {}, {},
  {}, {},
  {}, {},
  {}, {},
  {}, {},
  {}, {},
  {}, {},
  {}, {},
  {}, {},
  {}, {},
  {}, {},
  {}, {},
  {}, {},
  {}, {},
  {}, {},
  {}, {},
  {}, {},
  {}, {},
  {}, {},
  {}, {},
  {}, {},
  {}, {},
  {}, {},
  {}, {},
  {}, {},
  {}, {},
  {}, {},
  {}, {},
  {}, {},
  {}, {},
  {}, {},
  {}, {},
  {}, {},
  {}, {},
  {}, {},
  {}, {},
  {}, {},
  {}, {},
  {}, {},
  {}, {},
  {}, {},
  {}, {},
  {}, {},
  {}, {},
  {}, {},
  {}, {},
  {}, {},
  {}, {},
  {}, {},
  {}, {},
  {}, {},
  {}, {},
  {}, {},
  {}, {},
  {}, {},
  {}, {},
  {}, {},
  {}, {},
  {}, {},
  {}, {},
  {}, {},
  {}, {},
  {}, {},
  {}, {},
  {}, {},
  {}, {},
  {}, {},
  {}, {},
  {}, {},
  {}, {},
  {}, {},
  {}, {},
  {}, {},
  {}, {},
  {}, {},
  {}, {},
  {}, {},
  {}, {},
  {}, {},
  {}, {},
  {}, {},
  {}, {},
  {}, {},
  {}, {},
  {}, {},
  {}, {},
  {}, {},
  {}, {},
  {}, {},
  {}, {},
  {}, {},
  {}, {},
  {}, {},
  {}, {},
  {}, {},
  {}, {},
  {}, {},
  {}, {},
  {}, {},
  {}, {},
  {}, {},
  {}, {},
  {}, {},
  {}, {},
  {}, {},
  {}, {},
  {}, {},
  {}, {},
  {}, {},
  {}, {},
  {}, {},
  {}, {},
  {}, {},
  {}, {},
  {}, {},
  {}, {},
  {}, {},
  {}, {},
  {}, {},
  {}, {},
  {}, {},
  {}, {},
  {}, {},
  {}, {},
  {}, {},
  {}, {},
  {}, {},
  {}, {},
  {}, {},
  {}, {},
  {}, {},
  {}, {},
  {}, {},
  {}, {},
  {}, {},
  {}, {},
  {}, {},
  {}, {},
  {}, {},
  {}, {},
  {}, {},
  {}, {},
  {}, {},
  {}, {},
  {}, {},
  {}, {},
  {}, {},
  {}, {},
  {}, {},
  {}, {},
  {}, {},
  {}, {},
  {}, {},
  {}, {},
  {}, {},
  {}, {},
  {}, {},
  {}, {},
  {}, {},
  {}, {},
  {}, {},
  {}, {},
  {}, {},
  {}, {},
  {}, {},
  {}, {},
  {}, {},
  {}, {},
  {}, {},
  {}, {},
  {}, {},
  {}, {},
  {}, {},
  {}, {},
  {}, {},
  {}, {},
  {}, {},
  {}, {},
  {}, {},
  {}, {},
  {}, {},
  {}, {},
  {}, {},
  {}, {},
  {}, {},
  {}, {},
  {}, {},
  {}, {},
  {}, {},
  {}, {},
  {}, {},
  {}, {},
  {}, {},
  {}, {},
  {}, {},
  {}, {},
  {}, {},
  {}, {},
  {}, {},
  {}, {},
  {}, {},
  {}, {},
  {}, {},
  {}, {},
  {}, {},
  {}, {},
  {}, {},
  {}, {},
  {}, {},
  {}, {},
  {}, {},
  {}, {},
  {}, {},
  {}, {},
  {}, {},
  {}, {},
  {}, {},
  {}, {},
  {}, {},
  {}, {},
  {}, {},
  {}, {},
  {}, {},
  {}, {},
  {}, {},
  {}, {},
  {}, {},
  {}, {},
  {}, {},
  {}, {},
  {}, {},
  {}, {},
  {}, {},
  {}, {},
  {}, {},
  {}, {},
  {}, {},
  {}, {},
  {}, {},
  {}, {},
  {}, {},
  {}, {},
  {}, {},
  {}, {},
  {}, {},
  {}, {},
  {}, {},
  {}, {},
  {}, {},
  {}, {},
  {}, {},
  {}, {},
  {}, {},
  {}, {},
  {}, {},
  {}, {},
  {}, {},
  {}, {},
  {}, {},
  {}, {},
  {}, {},
  {}, {},
  {}, {}
]);
